NAME fractional_lp
OBJSENSE MAX
ROWS
 N  OBJ
 E  c0      
 L  c1      
 L  c2      
 L  c3      
 L  c4      
 L  c5      
 L  c6      
 L  c7      
 L  c8      
 L  c9      
 L  c10     
 L  c11     
 L  c12     
 L  c13     
 L  c14     
 L  c15     
 L  c16     
 G  c17     
 G  c18     
 G  c19     
 G  c20     
 G  c21     
 G  c22     
 G  c23     
 G  c24     
 G  c25     
 G  c26     
 G  c27     
 G  c28     
 G  c29     
 G  c30     
 G  c31     
 G  c32     
 G  c33     
 G  c34     
 G  c35     
 G  c36     
 G  c37     
 G  c38     
 G  c39     
 G  c40     
COLUMNS
    y[0]      OBJ       9.1772388833526441e-01
    y[0]      c0        1
    y[0]      c1        1
    y[1]      OBJ       0.55093332756855
    y[1]      c0        1
    y[1]      c2        1
    y[1]      c17       1
    y[1]      c20       1
    y[1]      c22       1
    y[1]      c24       1
    y[1]      c26       1
    y[1]      c27       1
    y[1]      c32       1
    y[1]      c38       1
    y[2]      OBJ       4.7262975516408579e-01
    y[2]      c0        1
    y[2]      c3        1
    y[2]      c17       1
    y[2]      c20       1
    y[2]      c22       1
    y[2]      c24       1
    y[2]      c26       1
    y[2]      c27       1
    y[2]      c32       1
    y[2]      c38       1
    y[3]      OBJ       9.8513447147592526e-01
    y[3]      c0        1
    y[3]      c4        1
    y[4]      OBJ       8.8097466137266944e-01
    y[4]      c0        1
    y[4]      c5        1
    y[5]      OBJ       3.8128247599206311e-01
    y[5]      c0        1
    y[5]      c6        1
    y[5]      c17       1
    y[5]      c18       1
    y[5]      c21       1
    y[5]      c22       1
    y[5]      c23       1
    y[5]      c24       1
    y[5]      c27       1
    y[5]      c29       1
    y[5]      c30       1
    y[5]      c33       1
    y[5]      c36       1
    y[5]      c40       1
    y[6]      OBJ       6.5822469313249310e-02
    y[6]      c0        1
    y[6]      c7        1
    y[6]      c17       1
    y[6]      c18       1
    y[6]      c21       1
    y[6]      c22       1
    y[6]      c23       1
    y[6]      c24       1
    y[6]      c27       1
    y[6]      c29       1
    y[6]      c30       1
    y[6]      c33       1
    y[6]      c36       1
    y[6]      c40       1
    y[7]      OBJ       7.9458956506183176e-01
    y[7]      c0        1
    y[7]      c8        1
    y[8]      OBJ       6.5252545524099781e-01
    y[8]      c0        1
    y[8]      c9        1
    y[9]      OBJ       4.8437593743311080e-01
    y[9]      c0        1
    y[9]      c10       1
    y[9]      c17       1
    y[9]      c19       1
    y[9]      c22       1
    y[9]      c23       1
    y[9]      c26       1
    y[9]      c29       1
    y[9]      c31       1
    y[9]      c32       1
    y[9]      c33       1
    y[9]      c35       1
    y[9]      c37       1
    y[9]      c40       1
    y[10]     OBJ       9.3549884757871815e-01
    y[10]     c0        1
    y[10]     c11       1
    y[10]     c17       1
    y[10]     c19       1
    y[10]     c22       1
    y[10]     c23       1
    y[10]     c26       1
    y[10]     c29       1
    y[10]     c31       1
    y[10]     c32       1
    y[10]     c33       1
    y[10]     c35       1
    y[10]     c37       1
    y[10]     c40       1
    y[11]     OBJ       1.2536428409816058e-02
    y[11]     c0        1
    y[11]     c12       1
    y[12]     OBJ       4.7953122266301129e-01
    y[12]     c0        1
    y[12]     c13       1
    y[13]     OBJ       7.8346181658190817e-01
    y[13]     c0        1
    y[13]     c14       1
    y[13]     c17       1
    y[13]     c18       1
    y[13]     c21       1
    y[13]     c22       1
    y[13]     c23       1
    y[13]     c24       1
    y[13]     c27       1
    y[13]     c29       1
    y[13]     c30       1
    y[13]     c33       1
    y[13]     c36       1
    y[13]     c40       1
    y[14]     OBJ       5.7832001178896608e-01
    y[14]     c0        1
    y[14]     c15       1
    y[14]     c17       1
    y[14]     c18       1
    y[14]     c21       1
    y[14]     c22       1
    y[14]     c23       1
    y[14]     c24       1
    y[14]     c27       1
    y[14]     c29       1
    y[14]     c30       1
    y[14]     c33       1
    y[14]     c36       1
    y[14]     c40       1
    y[15]     OBJ       4.1448118390835931e-01
    y[15]     c0        1
    y[15]     c16       1
    t         c1        -1
    t         c2        -1
    t         c3        -1
    t         c4        -1
    t         c5        -1
    t         c6        -1
    t         c7        -1
    t         c8        -1
    t         c9        -1
    t         c10       -1
    t         c11       -1
    t         c12       -1
    t         c13       -1
    t         c14       -1
    t         c15       -1
    t         c16       -1
    t         c17       -1
    t         c18       -1
    t         c19       -1
    t         c20       -1
    t         c21       -1
    t         c22       -1
    t         c23       -1
    t         c24       -1
    t         c25       -1
    t         c26       -1
    t         c27       -1
    t         c28       -1
    t         c29       -1
    t         c30       -1
    t         c31       -1
    t         c32       -1
    t         c33       -1
    t         c34       -1
    t         c35       -1
    t         c36       -1
    t         c37       -1
    t         c38       -1
    t         c39       -1
    t         c40       -1
RHS
    RHS1      c0        1
BOUNDS
ENDATA
